
set t := 1 
2 
3 
4 
5 
6 
7 
8 
9 
10 
11 
12 
13 
14 
15 
16 
17 
18 
19 
20 
21 
22 
23 
24 
25 
26 
27 
28 
29 
30 
31 
32 
33 
34 
35 
36 
37 
38 
39 
40 
41 
42 
43 
44 
45 
46 
47 
48 
49 
50 
51 
52 
53 
54 
55 
56 
57 
58 
59 
60 
61 
62 
63 
64 
65 
66 
67 
68 
69 
70 
71 
72 
73 
74 
75 
76 
77 
78 
79 
80 
81 
82 
83 
84 
85 
86 
87 
88 
89 
90 
91 
92 
93 
94 
95 
96 
97 
98 
99 
100 
101 
102 
103 
104 
105 
106 
107 
108 
109 
110 
111 
112 
113 
114 
115 
116 
117 
118 
119 
120 
121 
122 
123 
124 
125 
126 
127 
128 
129 
130 
131 
132 
133 
134 
135 
136 
137 
138 
139 
140 
141 
142 
143 
144 
145 
146 
147 
148 
149 
150 
151 
152 
153 
154 
155 
156 
157 
158 
159 
160 
161 
162 
163 
164 
165 
166 
167 
168 
169 
170 
171 
172 
173 
174 
175 
176 
177 
178 
179 
180 
181 
182 
183 
184 
185 
186 
187 
188 
189 
190 
191 
192 
193 
194 
195 
196 
197 
198 
199 
200 
201 
202 
203 
204 
205 
206 
207 
208 
209 
210 
211 
212 
213 
214 
215 
216 
217 
218 
219 
220 
221 
222 
223 
224 
225 
226 
227 
228 
229 
230 
231 
232 
233 
234 
235 
236 
237 
238 
239 
240 
241 
242 
243 
244 
245 
246 
247 
248 
249 
250 
251 
252 
253 
254 
255 
256 
257 
258 
259 
260 
261 
262 
263 
264 
265 
266 
267 
268 
269 
270 
271 
272 
273 
274 
275 
276 
277 
278 
279 
280 
281 
282 
283 
284 
285 
286 
287 
288 
289 
290 
291 
292 
293 
294 
295 
296 
297 
298 
299 
300 
301 
302 
303 
304 
305 
306 
307 
308 
309 
310 
311 
312 
313 
314 
315 
316 
317 
318 
319 
320 
321 
322 
323 
324 
325 
326 
327 
328 
329 
330 
331 
332 
333 
334 
335 
336 
337 
338 
339 
340 
341 
342 
343 
344 
345 
346 
347 
348 
349 
350 
351 
352 
353 
354 
355 
356 
357 
358 
359 
360 
361 
362 
363 
364 
365 
366 
367 
368 
369 
370 
371 
372 
373 
374 
375 
376 
377 
378 
379 
380 
381 
382 
383 
384 
385 
386 
387 
388 
389 
390 
391 
392 
393 
394 
395 
396 
397 
398 
399 
400 
401 
402 
403 
404 
405 
406 
407 
408 
409 
410 
411 
412 
413 
414 
415 
416 
417 
418 
419 
420 
421 
422 
423 
424 
425 
426 
427 
428 
429 
430 
431 
432 
433 
434 
435 
436 
437 
438 
439 
440 
441 
442 
443 
444 
445 
446 
447 
448 
449 
450 
451 
452 
453 
454 
455 
456 
457 
458 
459 
460 
461 
462 
463 
464 
465 
466 
467 
468 
469 
470 
471 
472 
473 
474 
475 
476 
477 
478 
479 
480 
481 
482 
483 
484 
485 
486 
487 
488 
489 
490 
491 
492 
493 
494 
495 
496 
497 
498 
499 
500 
501 
502 
503 
504 
505 
506 
507 
508 
509 
510 
511 
512 
513 
514 
515 
516 
517 
518 
519 
520 
521 
522 
523 
524 
525 
526 
527 
528 
529 
530 
531 
532 
533 
534 
535 
536 
537 
538 
539 
540 
541 
542 
543 
544 
545 
546 
547 
548 
549 
550 
551 
552 
553 
554 
555 
556 
557 
558 
559 
560 
561 
562 
563 
564 
565 
566 
567 
568 
569 
570 
571 
572 
573 
574 
575 
576 
577 
578 
579 
580 
581 
582 
583 
584 
585 
586 
587 
588 
589 
590 
591 
592 
593 
594 
595 
596 
597 
598 
599 
600 
601 
602 
603 
604 
605 
606 
607 
608 
609 
610 
611 
612 
613 
614 
615 
616 
617 
618 
619 
620 
621 
622 
623 
624 
625 
626 
627 
628 
629 
630 
631 
632 
633 
634 
635 
636 
637 
638 
639 
640 
641 
642 
643 
644 
645 
646 
647 
648 
649 
650 
651 
652 
653 
654 
655 
656 
657 
658 
659 
660 
661 
662 
663 
664 
665 
666 
667 
668 
669 
670 
671 
672 
673 
674 
675 
676 
677 
678 
679 
680 
681 
682 
683 
684 
685 
686 
687 
688 
689 
690 
691 
692 
693 
694 
695 
696 
697 
698 
699 
700 
701 
702 
703 
704 
705 
706 
707 
708 
709 
710 
711 
712 
713 
714 
715 
716 
717 
718 
719 
720 
721 
722 
723 
724 
725 
726 
727 
728 
729 
730 
731 
732 
733 
734 
735 
736 
737 
738 
739 
740 
741 
742 
743 
744 
745 
746 
747 
748 
749 
750 
751 
752 
753 
754 
755 
756 
757 
758 
759 
760 
761 
762 
763 
764 
765 
766 
767 
768 
769 
770 
771 
772 
773 
774 
775 
776 
777 
778 
779 
780 
781 
782 
783 
784 
785 
786 
787 
788 
789 
790 
791 
792 
793 
794 
795 
796 
797 
798 
799 
800 
801 
802 
803 
804 
805 
806 
807 
808 
809 
810 
811 
812 
813 
814 
815 
816 
817 
818 
819 
820 
821 
822 
823 
824 
825 
826 
827 
828 
829 
830 
831 
832 
833 
834 
835 
836 
837 
838 
839 
840 
841 
842 
843 
844 
845 
846 
847 
848 
849 
850 
851 
852 
853 
854 
855 
856 
857 
858 
859 
860 
861 
862 
863 
864 
865 
866 
867 
868 
869 
870 
871 
872 
873 
874 
875 
876 
877 
878 
879 
880 
881 
882 
883 
884 
885 
886 
887 
888 
889 
890 
891 
892 
893 
894 
895 
896 
897 
898 
899 
900 
901 
902 
903 
904 
905 
906 
907 
908 
909 
910 
911 
912 
913 
914 
915 
916 
917 
918 
919 
920 
921 
922 
923 
924 
925 
926 
927 
928 
929 
930 
931 
932 
933 
934 
935 
936 
937 
938 
939 
940 
941 
942 
943 
944 
945 
946 
947 
948 
949 
950 
951 
952 
953 
954 
955 
956 
957 
958 
959 
960 
961 
962 
963 
964 
965 
966 
967 
968 
969 
970 
971 
972 
973 
974 
975 
976 
977 
978 
979 
980 
981 
982 
983 
984 
985 
986 
987 
988 
989 
990 
991 
992 
993 
994 
995 
996 
997 
998 
999 
1000 
1001 
1002 
1003 
1004 
1005 
1006 
1007 
1008 
1009 
1010 
1011 
1012 
1013 
1014 
1015 
1016 
1017 
1018 
1019 
1020 
1021 
1022 
1023 
1024 
1025 
1026 
1027 
1028 
1029 
1030 
1031 
1032 
1033 
1034 
1035 
1036 
1037 
1038 
1039 
1040 
1041 
1042 
1043 
1044 
1045 
1046 
1047 
1048 
1049 
1050 
1051 
1052 
1053 
1054 
1055 
1056 
1057 
1058 
1059 
1060 
1061 
1062 
1063 
1064 
1065 
1066 
1067 
1068 
1069 
1070 
1071 
1072 
1073 
1074 
1075 
1076 
1077 
1078 
1079 
1080 
1081 
1082 
1083 
1084 
1085 
1086 
1087 
1088 
1089 
1090 
1091 
1092 
1093 
1094 
1095 
1096 
1097 
1098 
1099 
1100 
1101 
1102 
1103 
1104 
1105 
1106 
1107 
1108 
1109 
1110 
1111 
1112 
1113 
1114 
1115 
1116 
1117 
1118 
1119 
1120 
1121 
1122 
1123 
1124 
1125 
1126 
1127 
1128 
1129 
1130 
1131 
1132 
1133 
1134 
1135 
1136 
1137 
1138 
1139 
1140 
1141 
1142 
1143 
1144 
1145 
1146 
1147 
1148 
1149 
1150 
1151 
1152 
1153 
1154 
1155 
1156 
1157 
1158 
1159 
1160 
1161 
1162 
1163 
1164 
1165 
1166 
1167 
1168 
1169 
1170 
1171 
1172 
1173 
1174 
1175 
1176 
1177 
1178 
1179 
1180 
1181 
1182 
1183 
1184 
1185 
1186 
1187 
1188 
1189 
1190 
1191 
1192 
1193 
1194 
1195 
1196 
1197 
1198 
1199 
1200 
1201 
1202 
1203 
1204 
1205 
1206 
1207 
1208 
1209 
1210 
1211 
1212 
1213 
1214 
1215 
1216 
1217 
1218 
1219 
1220 
1221 
1222 
1223 
1224 
1225 
1226 
1227 
1228 
1229 
1230 
1231 
1232 
1233 
1234 
1235 
1236 
1237 
1238 
1239 
1240 
1241 
1242 
1243 
1244 
1245 
1246 
1247 
1248 
1249 
1250 
1251 
1252 
1253 
1254 
1255 
1256 
1257 
1258 
1259 
1260 
1261 
1262 
1263 
1264 
1265 
1266 
1267 
1268 
1269 
1270 
1271 
1272 
1273 
1274 
1275 
1276 
1277 
1278 
1279 
1280 
1281 
1282 
1283 
1284 
1285 
1286 
1287 
1288 
1289 
1290 
1291 
1292 
1293 
1294 
1295 
1296 
1297 
1298 
1299 
1300 
1301 
1302 
1303 
1304 
1305 
1306 
1307 
1308 
1309 
1310 
1311 
1312 
1313 
1314 
1315 
1316 
1317 
1318 
1319 
1320 
1321 
1322 
1323 
1324 
1325 
1326 
1327 
1328 
1329 
1330 
1331 
1332 
1333 
1334 
1335 
1336 
1337 
1338 
1339 
1340 
1341 
1342 
1343 
1344 
1345 
1346 
1347 
1348 
1349 
1350 
1351 
1352 
1353 
1354 
1355 
1356 
1357 
1358 
1359 
1360 
1361 
1362 
1363 
1364 
1365 
1366 
1367 
1368 
1369 
1370 
1371 
1372 
1373 
1374 
1375 
1376 
1377 
1378 
1379 
1380 
1381 
1382 
1383 
1384 
1385 
1386 
1387 
1388 
1389 
1390 
1391 
1392 
1393 
1394 
1395 
1396 
1397 
1398 
1399 
1400 
1401 
1402 
1403 
1404 
1405 
1406 
1407 
1408 
1409 
1410 
1411 
1412 
1413 
1414 
1415 
1416 
1417 
1418 
1419 
1420 
1421 
1422 
1423 
1424 
1425 
1426 
1427 
1428 
1429 
1430 
1431 
1432 
1433 
1434 
1435 
1436 
1437 
1438 
1439 
1440; #i =1440

param: tau_amb m :=
1	19.6	0.0
2	19.6	0.0
3	19.6	0.0
4	19.6	0.0
5	19.6	0.0
6	19.6	0.0
7	19.6	0.0
8	19.6	0.0
9	19.6	0.0
10	19.6	0.0
11	19.6	0.0
12	19.6	0.0
13	19.6	0.0
14	19.6	0.0
15	19.6	0.0
16	19.6	0.0
17	19.6	0.0
18	19.6	0.0
19	19.6	0.0
20	19.6	0.0
21	19.6	0.0
22	19.6	0.0
23	19.6	0.0
24	19.6	0.0
25	19.6	0.0
26	19.6	0.0
27	19.6	0.0
28	19.6	0.0
29	19.6	0.0
30	19.6	0.0
31	19.6	0.0
32	19.6	0.0
33	19.6	0.0
34	19.6	0.0
35	19.6	0.0
36	19.6	0.0
37	19.6	0.0
38	19.6	0.0
39	19.6	0.0
40	19.6	0.0
41	19.6	0.0
42	19.6	0.0
43	19.6	0.0
44	19.6	0.0
45	19.6	0.0
46	19.6	0.0
47	19.6	0.0
48	19.6	0.0
49	19.6	0.0
50	19.6	0.0
51	19.6	0.0
52	19.6	0.0
53	19.6	0.0
54	19.6	0.0
55	19.6	0.0
56	19.6	0.0
57	19.6	0.0
58	19.6	0.0
59	19.6	0.0
60	19.6	0.0
61	19.6	0.0
62	19.6	0.0
63	19.6	0.0
64	19.6	0.0
65	19.6	0.0
66	19.6	0.0
67	19.6	0.0
68	19.6	0.0
69	19.6	0.0
70	19.6	0.0
71	19.6	0.0
72	19.6	0.0
73	19.6	0.0
74	19.6	0.0
75	19.6	0.0
76	19.6	0.0
77	19.6	0.0
78	19.6	0.0
79	19.6	0.0
80	19.6	0.0
81	19.6	0.0
82	19.6	0.0
83	19.6	0.0
84	19.6	0.0
85	19.6	0.0
86	19.6	0.0
87	19.6	0.0
88	19.6	0.0
89	19.6	0.0
90	19.6	0.0
91	19.6	0.0
92	19.6	0.0
93	19.6	0.0
94	19.6	0.0
95	19.6	0.0
96	19.6	0.0
97	19.6	0.0
98	19.6	0.0
99	19.6	0.0
100	19.6	0.0
101	19.6	0.0
102	19.6	0.0
103	19.6	0.0
104	19.6	0.0
105	19.6	0.0
106	19.6	0.0
107	19.6	0.0
108	19.6	0.0
109	19.6	0.0
110	19.6	0.0
111	19.6	0.0
112	19.6	0.0
113	19.6	0.0
114	19.6	0.0
115	19.6	0.0
116	19.6	0.0
117	19.6	0.0
118	19.6	0.0
119	19.6	0.0
120	19.6	0.0
121	19.6	0.0
122	19.6	0.0
123	19.6	0.0
124	19.6	0.0
125	19.6	0.0
126	19.6	0.0
127	19.6	0.0
128	19.6	0.0
129	19.6	0.0
130	19.6	0.0
131	19.6	0.0
132	19.6	0.0
133	19.6	0.0
134	19.6	0.0
135	19.6	0.0
136	19.6	0.0
137	19.6	0.0
138	19.6	0.0
139	19.6	0.0
140	19.6	0.0
141	19.6	0.0
142	19.6	0.0
143	19.6	0.0
144	19.6	0.0
145	19.6	0.0
146	19.6	0.0
147	19.6	0.0
148	19.6	0.0
149	19.6	0.0
150	19.6	0.0
151	19.6	0.0
152	19.6	0.0
153	19.6	0.0
154	19.6	0.0
155	19.6	0.0
156	19.6	0.0
157	19.6	0.0
158	19.6	0.0
159	19.6	0.0
160	19.6	0.0
161	19.6	0.0
162	19.6	0.0
163	19.6	0.0
164	19.6	0.0
165	19.6	0.0
166	19.6	0.0
167	19.6	0.0
168	19.6	0.0
169	19.6	0.0
170	19.6	0.0
171	19.6	0.0
172	19.6	0.0
173	19.6	0.0
174	19.6	0.0
175	19.6	0.0
176	19.6	0.0
177	19.6	0.0
178	19.6	0.0
179	19.6	0.0
180	19.6	0.0
181	19.6	0.0
182	18.5	0.0
183	18.5	0.0
184	18.5	0.0
185	18.5	0.0
186	18.5	0.0
187	18.5	0.0
188	18.5	0.0
189	18.5	0.0
190	18.5	0.0
191	18.5	0.0
192	18.5	0.0
193	18.5	0.0
194	18.5	0.0
195	18.5	0.0
196	18.5	0.0
197	18.5	0.0
198	18.5	0.0
199	18.5	0.0
200	18.5	0.0
201	18.5	0.0
202	18.5	0.0
203	18.5	0.0
204	18.5	0.0
205	18.5	0.0
206	18.5	0.0
207	18.5	0.0
208	18.5	0.0
209	18.5	0.0
210	18.5	0.0
211	18.5	0.0
212	18.5	0.0
213	18.5	0.0
214	18.5	0.0
215	18.5	0.0
216	18.5	0.0
217	18.5	0.0
218	18.5	0.0
219	18.5	0.0
220	18.5	0.0
221	18.5	0.0
222	18.5	0.0
223	18.5	0.0
224	18.5	0.0
225	18.5	0.0
226	18.5	0.0
227	18.5	0.0
228	18.5	0.0
229	18.5	0.0
230	18.5	0.0
231	18.5	0.0
232	18.5	0.0
233	18.5	0.0
234	18.5	0.0
235	18.5	0.0
236	18.5	0.0
237	18.5	0.0
238	18.5	0.0
239	18.5	0.0
240	18.5	0.0
241	18.5	0.0
242	18.5	0.0
243	18.5	0.0
244	18.5	0.0
245	18.5	0.0
246	18.5	0.0
247	18.5	0.0
248	18.5	0.0
249	18.5	0.0
250	18.5	0.0
251	18.5	0.0
252	18.5	0.0
253	18.5	0.0
254	18.5	0.0
255	18.5	0.0
256	18.5	0.0
257	18.5	0.0
258	18.5	0.0
259	18.5	0.0
260	18.5	0.0
261	18.5	0.0
262	18.5	0.0
263	18.5	0.0
264	18.5	0.0
265	18.5	0.0
266	18.5	0.0
267	18.5	0.0
268	18.5	0.0
269	18.5	0.0
270	18.5	0.0
271	18.5	0.0
272	18.5	0.0
273	18.5	0.0
274	18.5	0.0
275	18.5	0.0
276	18.5	0.0
277	18.5	0.0
278	18.5	0.0
279	18.5	0.0
280	18.5	0.0
281	18.5	0.0
282	18.5	0.0
283	18.5	0.0
284	18.5	0.0
285	18.5	0.0
286	18.5	0.0
287	18.5	0.0
288	18.5	0.0
289	18.5	0.0
290	18.5	0.0
291	18.5	0.0
292	18.5	0.0
293	18.5	0.0
294	18.5	0.0
295	18.5	0.0
296	18.5	0.0
297	18.5	0.0
298	18.5	0.0
299	18.5	0.0
300	18.5	0.0
301	18.5	0.0
302	18.5	0.0
303	18.5	0.0
304	18.5	0.0
305	18.5	0.0
306	18.5	0.0
307	18.5	0.0
308	18.5	0.0
309	18.5	0.0
310	18.5	0.0
311	18.5	0.0
312	18.5	0.0
313	18.5	0.0
314	18.5	0.0
315	18.5	0.0
316	18.5	0.0
317	18.5	0.0
318	18.5	0.0
319	18.5	0.0
320	18.5	0.0
321	18.5	0.0
322	18.5	0.0
323	18.5	0.0
324	18.5	0.0
325	18.5	0.0
326	18.5	0.0
327	18.5	0.0
328	18.5	0.0
329	18.5	0.0
330	18.5	0.0
331	18.5	0.0
332	18.5	0.0
333	18.5	0.0
334	18.5	0.0
335	18.5	0.0
336	18.5	0.0
337	18.5	0.0
338	18.5	0.0
339	18.5	0.0
340	18.5	0.0
341	18.5	0.0
342	18.5	0.0
343	18.5	0.0
344	18.5	0.0
345	18.5	0.0
346	18.5	0.0
347	18.5	0.0
348	18.5	0.0
349	18.5	0.0
350	18.5	0.0
351	18.5	0.0
352	18.5	0.0
353	18.5	0.0
354	18.5	0.0
355	18.5	0.0
356	18.5	0.0
357	18.5	0.0
358	18.5	0.0
359	18.5	0.0
360	18.5	0.0
361	18.5	0.0
362	18.5	0.0
363	18.5	0.0
364	18.5	0.0
365	18.5	0.0
366	18.5	0.0
367	18.5	0.0
368	18.5	0.0
369	18.5	0.0
370	18.5	0.0
371	18.5	0.0
372	18.5	0.0
373	18.5	0.0
374	18.5	0.0
375	18.5	0.0
376	18.5	0.0
377	18.5	0.0
378	18.5	0.0
379	18.5	0.0
380	18.5	0.0
381	18.5	0.0
382	18.5	0.0
383	18.5	0.0
384	18.5	0.0
385	18.5	0.0
386	18.5	0.0
387	18.5	0.0
388	18.5	0.0
389	18.5	0.0
390	18.5	0.0
391	18.5	0.0
392	18.5	0.0
393	18.5	0.0
394	18.5	0.0
395	18.5	0.0
396	18.5	0.0
397	18.5	0.0
398	18.5	0.0
399	18.5	0.0
400	18.5	0.0
401	18.5	0.0
402	18.5	0.0
403	18.5	0.0
404	18.5	0.0
405	18.5	0.0
406	18.5	0.0
407	18.5	0.0
408	18.5	0.0
409	18.5	0.0
410	18.5	0.0
411	18.5	0.0
412	18.5	0.0
413	18.5	0.0
414	18.5	0.0
415	18.5	0.0
416	18.5	0.0
417	18.5	0.0
418	18.5	0.0
419	18.5	0.0
420	18.5	0.0
421	18.5	0.0
422	18.5	0.0
423	18.5	0.0
424	18.5	0.0
425	18.5	0.0
426	18.5	0.0
427	18.5	0.0
428	18.5	0.0
429	18.5	0.0
430	18.5	0.0
431	18.5	0.0
432	18.5	0.0
433	18.5	0.0
434	18.5	0.0
435	18.5	0.0
436	18.5	0.0
437	18.5	0.0
438	18.5	0.0
439	18.5	0.0
440	18.5	0.0
441	18.5	0.0
442	18.5	0.0
443	18.5	0.0
444	18.5	0.0
445	18.5	0.0
446	18.5	0.0
447	18.5	0.0
448	18.5	0.0
449	18.5	0.0
450	18.5	0.0
451	18.5	0.0
452	18.5	0.0
453	18.5	0.0
454	18.5	0.0
455	18.5	0.0
456	18.5	0.0
457	18.5	0.0
458	18.5	0.0
459	18.5	0.0
460	18.5	0.0
461	18.5	0.0
462	18.5	0.0
463	18.5	0.0
464	18.5	0.0
465	18.5	0.0
466	18.5	0.0
467	18.5	0.0
468	18.5	0.0
469	18.5	0.0
470	18.5	0.0
471	18.5	0.0
472	18.5	0.0
473	18.5	0.0
474	18.5	0.0
475	18.5	0.0
476	18.5	0.0
477	18.5	0.0
478	18.5	0.0
479	18.5	0.0
480	18.5	7.2
481	18.5	7.2
482	18.5	7.2
483	18.5	7.2
484	18.5	7.2
485	18.5	7.2
486	18.5	7.2
487	18.5	7.2
488	18.5	7.2
489	18.5	7.2
490	18.5	7.2
491	18.5	0.0
492	18.5	0.0
493	18.5	0.0
494	18.5	0.0
495	18.5	0.0
496	18.5	0.0
497	18.5	0.0
498	18.5	0.0
499	18.5	0.0
500	18.5	0.0
501	18.5	0.0
502	18.5	0.0
503	18.5	0.0
504	18.5	0.0
505	18.5	0.0
506	18.5	0.0
507	18.5	0.0
508	18.5	0.0
509	18.5	0.0
510	18.5	7.2
511	18.5	7.2
512	18.5	7.2
513	18.5	7.2
514	18.5	7.2
515	18.5	7.2
516	18.5	7.2
517	18.5	7.2
518	18.5	7.2
519	18.5	7.2
520	18.5	7.2
521	18.5	0.0
522	18.5	0.0
523	18.5	0.0
524	18.5	0.0
525	18.5	0.0
526	18.5	0.0
527	18.5	0.0
528	18.5	0.0
529	18.5	0.0
530	18.5	0.0
531	18.5	0.0
532	18.5	0.0
533	18.5	0.0
534	18.5	0.0
535	18.5	0.0
536	18.5	0.0
537	18.5	0.0
538	18.5	0.0
539	18.5	0.0
540	18.5	0.0
541	18.5	0.0
542	22.4	0.0
543	22.4	0.0
544	22.4	0.0
545	22.4	0.0
546	22.4	0.0
547	22.4	0.0
548	22.4	0.0
549	22.4	0.0
550	22.4	0.0
551	22.4	0.0
552	22.4	0.0
553	22.4	0.0
554	22.4	0.0
555	22.4	0.0
556	22.4	0.0
557	22.4	0.0
558	22.4	0.0
559	22.4	0.0
560	22.4	0.0
561	22.4	0.0
562	22.4	0.0
563	22.4	0.0
564	22.4	0.0
565	22.4	0.0
566	22.4	0.0
567	22.4	0.0
568	22.4	0.0
569	22.4	0.0
570	22.4	0.0
571	22.4	0.0
572	22.4	0.0
573	22.4	0.0
574	22.4	0.0
575	22.4	0.0
576	22.4	0.0
577	22.4	0.0
578	22.4	0.0
579	22.4	0.0
580	22.4	0.0
581	22.4	0.0
582	22.4	0.0
583	22.4	0.0
584	22.4	0.0
585	22.4	0.0
586	22.4	0.0
587	22.4	0.0
588	22.4	0.0
589	22.4	0.0
590	22.4	0.0
591	22.4	0.0
592	22.4	0.0
593	22.4	0.0
594	22.4	0.0
595	22.4	0.0
596	22.4	0.0
597	22.4	0.0
598	22.4	0.0
599	22.4	0.0
600	22.4	0.0
601	22.4	0.0
602	22.4	0.0
603	22.4	0.0
604	22.4	0.0
605	22.4	0.0
606	22.4	0.0
607	22.4	0.0
608	22.4	0.0
609	22.4	0.0
610	22.4	0.0
611	22.4	0.0
612	22.4	0.0
613	22.4	0.0
614	22.4	0.0
615	22.4	0.0
616	22.4	0.0
617	22.4	0.0
618	22.4	0.0
619	22.4	0.0
620	22.4	0.0
621	22.4	0.0
622	22.4	0.0
623	22.4	0.0
624	22.4	0.0
625	22.4	0.0
626	22.4	0.0
627	22.4	0.0
628	22.4	0.0
629	22.4	0.0
630	22.4	0.0
631	22.4	0.0
632	22.4	0.0
633	22.4	0.0
634	22.4	0.0
635	22.4	0.0
636	22.4	0.0
637	22.4	0.0
638	22.4	0.0
639	22.4	0.0
640	22.4	0.0
641	22.4	0.0
642	22.4	0.0
643	22.4	0.0
644	22.4	0.0
645	22.4	0.0
646	22.4	0.0
647	22.4	0.0
648	22.4	0.0
649	22.4	0.0
650	22.4	0.0
651	22.4	0.0
652	22.4	0.0
653	22.4	0.0
654	22.4	0.0
655	22.4	0.0
656	22.4	0.0
657	22.4	0.0
658	22.4	0.0
659	22.4	0.0
660	22.4	0.0
661	22.4	0.0
662	22.4	0.0
663	22.4	0.0
664	22.4	0.0
665	22.4	0.0
666	22.4	0.0
667	22.4	0.0
668	22.4	0.0
669	22.4	0.0
670	22.4	0.0
671	22.4	0.0
672	22.4	0.0
673	22.4	0.0
674	22.4	0.0
675	22.4	0.0
676	22.4	0.0
677	22.4	0.0
678	22.4	0.0
679	22.4	0.0
680	22.4	0.0
681	22.4	0.0
682	22.4	0.0
683	22.4	0.0
684	22.4	0.0
685	22.4	0.0
686	22.4	0.0
687	22.4	0.0
688	22.4	0.0
689	22.4	0.0
690	22.4	0.0
691	22.4	0.0
692	22.4	0.0
693	22.4	0.0
694	22.4	0.0
695	22.4	0.0
696	22.4	0.0
697	22.4	0.0
698	22.4	0.0
699	22.4	0.0
700	22.4	0.0
701	22.4	0.0
702	22.4	0.0
703	22.4	0.0
704	22.4	0.0
705	22.4	0.0
706	22.4	0.0
707	22.4	0.0
708	22.4	0.0
709	22.4	0.0
710	22.4	0.0
711	22.4	0.0
712	22.4	0.0
713	22.4	0.0
714	22.4	0.0
715	22.4	0.0
716	22.4	0.0
717	22.4	0.0
718	22.4	0.0
719	22.4	0.0
720	22.4	0.0
721	22.4	0.0
722	23.2	0.0
723	23.2	0.0
724	23.2	0.0
725	23.2	0.0
726	23.2	0.0
727	23.2	0.0
728	23.2	0.0
729	23.2	0.0
730	23.2	0.0
731	23.2	0.0
732	23.2	0.0
733	23.2	0.0
734	23.2	0.0
735	23.2	0.0
736	23.2	0.0
737	23.2	0.0
738	23.2	0.0
739	23.2	0.0
740	23.2	0.0
741	23.2	0.0
742	23.2	0.0
743	23.2	0.0
744	23.2	0.0
745	23.2	0.0
746	23.2	0.0
747	23.2	0.0
748	23.2	0.0
749	23.2	0.0
750	23.2	0.0
751	23.2	0.0
752	23.2	0.0
753	23.2	0.0
754	23.2	0.0
755	23.2	0.0
756	23.2	0.0
757	23.2	0.0
758	23.2	0.0
759	23.2	0.0
760	23.2	0.0
761	23.2	0.0
762	23.2	0.0
763	23.2	0.0
764	23.2	0.0
765	23.2	0.0
766	23.2	0.0
767	23.2	0.0
768	23.2	0.0
769	23.2	0.0
770	23.2	0.0
771	23.2	0.0
772	23.2	0.0
773	23.2	0.0
774	23.2	0.0
775	23.2	0.0
776	23.2	0.0
777	23.2	0.0
778	23.2	0.0
779	23.2	0.0
780	23.2	0.0
781	23.2	0.0
782	23.2	0.0
783	23.2	0.0
784	23.2	0.0
785	23.2	0.0
786	23.2	0.0
787	23.2	0.0
788	23.2	0.0
789	23.2	0.0
790	23.2	0.0
791	23.2	0.0
792	23.2	0.0
793	23.2	0.0
794	23.2	0.0
795	23.2	0.0
796	23.2	0.0
797	23.2	0.0
798	23.2	0.0
799	23.2	0.0
800	23.2	0.0
801	23.2	0.0
802	23.2	0.0
803	23.2	0.0
804	23.2	0.0
805	23.2	0.0
806	23.2	0.0
807	23.2	0.0
808	23.2	0.0
809	23.2	0.0
810	23.2	0.0
811	23.2	0.0
812	23.2	0.0
813	23.2	0.0
814	23.2	0.0
815	23.2	0.0
816	23.2	0.0
817	23.2	0.0
818	23.2	0.0
819	23.2	0.0
820	23.2	0.0
821	23.2	0.0
822	23.2	0.0
823	23.2	0.0
824	23.2	0.0
825	23.2	0.0
826	23.2	0.0
827	23.2	0.0
828	23.2	0.0
829	23.2	0.0
830	23.2	0.0
831	23.2	0.0
832	23.2	0.0
833	23.2	0.0
834	23.2	0.0
835	23.2	0.0
836	23.2	0.0
837	23.2	0.0
838	23.2	0.0
839	23.2	0.0
840	23.2	0.0
841	23.2	0.0
842	23.2	0.0
843	23.2	0.0
844	23.2	0.0
845	23.2	0.0
846	23.2	0.0
847	23.2	0.0
848	23.2	0.0
849	23.2	0.0
850	23.2	0.0
851	23.2	0.0
852	23.2	0.0
853	23.2	0.0
854	23.2	0.0
855	23.2	0.0
856	23.2	0.0
857	23.2	0.0
858	23.2	0.0
859	23.2	0.0
860	23.2	0.0
861	23.2	0.0
862	23.2	0.0
863	23.2	0.0
864	23.2	0.0
865	23.2	0.0
866	23.2	0.0
867	23.2	0.0
868	23.2	0.0
869	23.2	0.0
870	23.2	0.0
871	23.2	0.0
872	23.2	0.0
873	23.2	0.0
874	23.2	0.0
875	23.2	0.0
876	23.2	0.0
877	23.2	0.0
878	23.2	0.0
879	23.2	0.0
880	23.2	0.0
881	23.2	0.0
882	23.2	0.0
883	23.2	0.0
884	23.2	0.0
885	23.2	0.0
886	23.2	0.0
887	23.2	0.0
888	23.2	0.0
889	23.2	0.0
890	23.2	0.0
891	23.2	0.0
892	23.2	0.0
893	23.2	0.0
894	23.2	0.0
895	23.2	0.0
896	23.2	0.0
897	23.2	0.0
898	23.2	0.0
899	23.2	0.0
900	23.2	0.0
901	23.2	0.0
902	23.7	0.0
903	23.7	0.0
904	23.7	0.0
905	23.7	0.0
906	23.7	0.0
907	23.7	0.0
908	23.7	0.0
909	23.7	0.0
910	23.7	0.0
911	23.7	0.0
912	23.7	0.0
913	23.7	0.0
914	23.7	0.0
915	23.7	0.0
916	23.7	0.0
917	23.7	0.0
918	23.7	0.0
919	23.7	0.0
920	23.7	0.0
921	23.7	0.0
922	23.7	0.0
923	23.7	0.0
924	23.7	0.0
925	23.7	0.0
926	23.7	0.0
927	23.7	0.0
928	23.7	0.0
929	23.7	0.0
930	23.7	0.0
931	23.7	0.0
932	23.7	0.0
933	23.7	0.0
934	23.7	0.0
935	23.7	0.0
936	23.7	0.0
937	23.7	0.0
938	23.7	0.0
939	23.7	0.0
940	23.7	0.0
941	23.7	0.0
942	23.7	0.0
943	23.7	0.0
944	23.7	0.0
945	23.7	0.0
946	23.7	0.0
947	23.7	0.0
948	23.7	0.0
949	23.7	0.0
950	23.7	0.0
951	23.7	0.0
952	23.7	0.0
953	23.7	0.0
954	23.7	0.0
955	23.7	0.0
956	23.7	0.0
957	23.7	0.0
958	23.7	0.0
959	23.7	0.0
960	23.7	0.0
961	23.7	0.0
962	23.7	0.0
963	23.7	0.0
964	23.7	0.0
965	23.7	0.0
966	23.7	0.0
967	23.7	0.0
968	23.7	0.0
969	23.7	0.0
970	23.7	0.0
971	23.7	0.0
972	23.7	0.0
973	23.7	0.0
974	23.7	0.0
975	23.7	0.0
976	23.7	0.0
977	23.7	0.0
978	23.7	0.0
979	23.7	0.0
980	23.7	0.0
981	23.7	0.0
982	23.7	0.0
983	23.7	0.0
984	23.7	0.0
985	23.7	0.0
986	23.7	0.0
987	23.7	0.0
988	23.7	0.0
989	23.7	0.0
990	23.7	0.0
991	23.7	0.0
992	23.7	0.0
993	23.7	0.0
994	23.7	0.0
995	23.7	0.0
996	23.7	0.0
997	23.7	0.0
998	23.7	0.0
999	23.7	0.0
1000	23.7	0.0
1001	23.7	0.0
1002	23.7	0.0
1003	23.7	0.0
1004	23.7	0.0
1005	23.7	0.0
1006	23.7	0.0
1007	23.7	0.0
1008	23.7	0.0
1009	23.7	0.0
1010	23.7	0.0
1011	23.7	0.0
1012	23.7	0.0
1013	23.7	0.0
1014	23.7	0.0
1015	23.7	0.0
1016	23.7	0.0
1017	23.7	0.0
1018	23.7	0.0
1019	23.7	0.0
1020	23.7	0.0
1021	23.7	0.0
1022	23.7	0.0
1023	23.7	0.0
1024	23.7	0.0
1025	23.7	0.0
1026	23.7	0.0
1027	23.7	0.0
1028	23.7	0.0
1029	23.7	0.0
1030	23.7	0.0
1031	23.7	0.0
1032	23.7	0.0
1033	23.7	0.0
1034	23.7	0.0
1035	23.7	0.0
1036	23.7	0.0
1037	23.7	0.0
1038	23.7	0.0
1039	23.7	0.0
1040	23.7	0.0
1041	23.7	0.0
1042	23.7	0.0
1043	23.7	0.0
1044	23.7	0.0
1045	23.7	0.0
1046	23.7	0.0
1047	23.7	0.0
1048	23.7	0.0
1049	23.7	0.0
1050	23.7	0.0
1051	23.7	0.0
1052	23.7	0.0
1053	23.7	0.0
1054	23.7	0.0
1055	23.7	0.0
1056	23.7	0.0
1057	23.7	0.0
1058	23.7	0.0
1059	23.7	0.0
1060	23.7	0.0
1061	23.7	0.0
1062	23.7	0.0
1063	23.7	0.0
1064	23.7	0.0
1065	23.7	0.0
1066	23.7	0.0
1067	23.7	0.0
1068	23.7	0.0
1069	23.7	0.0
1070	23.7	0.0
1071	23.7	0.0
1072	23.7	0.0
1073	23.7	0.0
1074	23.7	0.0
1075	23.7	0.0
1076	23.7	0.0
1077	23.7	0.0
1078	23.7	0.0
1079	23.7	0.0
1080	23.7	0.0
1081	23.7	0.0
1082	22.6	0.0
1083	22.6	0.0
1084	22.6	0.0
1085	22.6	0.0
1086	22.6	0.0
1087	22.6	0.0
1088	22.6	0.0
1089	22.6	0.0
1090	22.6	0.0
1091	22.6	0.0
1092	22.6	0.0
1093	22.6	0.0
1094	22.6	0.0
1095	22.6	0.0
1096	22.6	0.0
1097	22.6	0.0
1098	22.6	0.0
1099	22.6	0.0
1100	22.6	0.0
1101	22.6	0.0
1102	22.6	0.0
1103	22.6	0.0
1104	22.6	0.0
1105	22.6	0.0
1106	22.6	0.0
1107	22.6	0.0
1108	22.6	0.0
1109	22.6	0.0
1110	22.6	7.2
1111	22.6	7.2
1112	22.6	7.2
1113	22.6	7.2
1114	22.6	7.2
1115	22.6	7.2
1116	22.6	7.2
1117	22.6	7.2
1118	22.6	7.2
1119	22.6	7.2
1120	22.6	7.2
1121	22.6	7.2
1122	22.6	7.2
1123	22.6	7.2
1124	22.6	7.2
1125	22.6	7.2
1126	22.6	7.2
1127	22.6	7.2
1128	22.6	7.2
1129	22.6	7.2
1130	22.6	7.2
1131	22.6	7.2
1132	22.6	7.2
1133	22.6	7.2
1134	22.6	7.2
1135	22.6	7.2
1136	22.6	7.2
1137	22.6	7.2
1138	22.6	7.2
1139	22.6	7.2
1140	22.6	7.2
1141	22.6	7.2
1142	22.6	7.2
1143	22.6	7.2
1144	22.6	7.2
1145	22.6	7.2
1146	22.6	7.2
1147	22.6	7.2
1148	22.6	7.2
1149	22.6	7.2
1150	22.6	7.2
1151	22.6	7.2
1152	22.6	7.2
1153	22.6	7.2
1154	22.6	7.2
1155	22.6	7.2
1156	22.6	7.2
1157	22.6	7.2
1158	22.6	7.2
1159	22.6	7.2
1160	22.6	7.2
1161	22.6	7.2
1162	22.6	7.2
1163	22.6	7.2
1164	22.6	7.2
1165	22.6	7.2
1166	22.6	7.2
1167	22.6	7.2
1168	22.6	7.2
1169	22.6	7.2
1170	22.6	7.2
1171	22.6	7.2
1172	22.6	7.2
1173	22.6	7.2
1174	22.6	7.2
1175	22.6	7.2
1176	22.6	7.2
1177	22.6	7.2
1178	22.6	7.2
1179	22.6	7.2
1180	22.6	7.2
1181	22.6	7.2
1182	22.6	7.2
1183	22.6	7.2
1184	22.6	7.2
1185	22.6	7.2
1186	22.6	7.2
1187	22.6	7.2
1188	22.6	7.2
1189	22.6	7.2
1190	22.6	7.2
1191	22.6	7.2
1192	22.6	7.2
1193	22.6	7.2
1194	22.6	7.2
1195	22.6	7.2
1196	22.6	7.2
1197	22.6	7.2
1198	22.6	7.2
1199	22.6	7.2
1200	22.6	7.2
1201	22.6	7.2
1202	22.6	7.2
1203	22.6	7.2
1204	22.6	7.2
1205	22.6	7.2
1206	22.6	7.2
1207	22.6	7.2
1208	22.6	7.2
1209	22.6	7.2
1210	22.6	7.2
1211	22.6	7.2
1212	22.6	7.2
1213	22.6	7.2
1214	22.6	7.2
1215	22.6	7.2
1216	22.6	7.2
1217	22.6	7.2
1218	22.6	7.2
1219	22.6	7.2
1220	22.6	7.2
1221	22.6	7.2
1222	22.6	7.2
1223	22.6	7.2
1224	22.6	7.2
1225	22.6	7.2
1226	22.6	0.0
1227	22.6	0.0
1228	22.6	0.0
1229	22.6	0.0
1230	22.6	0.0
1231	22.6	0.0
1232	22.6	0.0
1233	22.6	0.0
1234	22.6	0.0
1235	22.6	0.0
1236	22.6	0.0
1237	22.6	0.0
1238	22.6	0.0
1239	22.6	0.0
1240	22.6	0.0
1241	22.6	0.0
1242	22.6	0.0
1243	22.6	0.0
1244	22.6	0.0
1245	22.6	0.0
1246	22.6	0.0
1247	22.6	0.0
1248	22.6	0.0
1249	22.6	0.0
1250	22.6	0.0
1251	22.6	0.0
1252	22.6	0.0
1253	22.6	0.0
1254	22.6	0.0
1255	22.6	0.0
1256	22.6	0.0
1257	22.6	0.0
1258	22.6	0.0
1259	22.6	0.0
1260	22.6	0.0
1261	22.6	0.0
1262	21.0	0.0
1263	21.0	0.0
1264	21.0	0.0
1265	21.0	0.0
1266	21.0	0.0
1267	21.0	0.0
1268	21.0	0.0
1269	21.0	0.0
1270	21.0	0.0
1271	21.0	0.0
1272	21.0	0.0
1273	21.0	0.0
1274	21.0	0.0
1275	21.0	0.0
1276	21.0	0.0
1277	21.0	0.0
1278	21.0	0.0
1279	21.0	0.0
1280	21.0	0.0
1281	21.0	0.0
1282	21.0	0.0
1283	21.0	0.0
1284	21.0	0.0
1285	21.0	0.0
1286	21.0	0.0
1287	21.0	0.0
1288	21.0	0.0
1289	21.0	0.0
1290	21.0	0.0
1291	21.0	0.0
1292	21.0	0.0
1293	21.0	0.0
1294	21.0	0.0
1295	21.0	0.0
1296	21.0	0.0
1297	21.0	0.0
1298	21.0	0.0
1299	21.0	0.0
1300	21.0	0.0
1301	21.0	0.0
1302	21.0	0.0
1303	21.0	0.0
1304	21.0	0.0
1305	21.0	0.0
1306	21.0	0.0
1307	21.0	0.0
1308	21.0	0.0
1309	21.0	0.0
1310	21.0	0.0
1311	21.0	0.0
1312	21.0	0.0
1313	21.0	0.0
1314	21.0	0.0
1315	21.0	0.0
1316	21.0	0.0
1317	21.0	0.0
1318	21.0	0.0
1319	21.0	0.0
1320	21.0	0.0
1321	21.0	0.0
1322	21.0	0.0
1323	21.0	0.0
1324	21.0	0.0
1325	21.0	0.0
1326	21.0	0.0
1327	21.0	0.0
1328	21.0	0.0
1329	21.0	0.0
1330	21.0	0.0
1331	21.0	0.0
1332	21.0	0.0
1333	21.0	0.0
1334	21.0	0.0
1335	21.0	0.0
1336	21.0	0.0
1337	21.0	0.0
1338	21.0	0.0
1339	21.0	0.0
1340	21.0	0.0
1341	21.0	0.0
1342	21.0	0.0
1343	21.0	0.0
1344	21.0	0.0
1345	21.0	0.0
1346	21.0	0.0
1347	21.0	0.0
1348	21.0	0.0
1349	21.0	0.0
1350	21.0	0.0
1351	21.0	0.0
1352	21.0	0.0
1353	21.0	0.0
1354	21.0	0.0
1355	21.0	0.0
1356	21.0	0.0
1357	21.0	0.0
1358	21.0	0.0
1359	21.0	0.0
1360	21.0	0.0
1361	21.0	0.0
1362	21.0	0.0
1363	21.0	0.0
1364	21.0	0.0
1365	21.0	0.0
1366	21.0	0.0
1367	21.0	0.0
1368	21.0	0.0
1369	21.0	0.0
1370	21.0	0.0
1371	21.0	0.0
1372	21.0	0.0
1373	21.0	0.0
1374	21.0	0.0
1375	21.0	0.0
1376	21.0	0.0
1377	21.0	0.0
1378	21.0	0.0
1379	21.0	0.0
1380	21.0	0.0
1381	21.0	0.0
1382	21.0	0.0
1383	21.0	0.0
1384	21.0	0.0
1385	21.0	0.0
1386	21.0	0.0
1387	21.0	0.0
1388	21.0	0.0
1389	21.0	0.0
1390	21.0	0.0
1391	21.0	0.0
1392	21.0	0.0
1393	21.0	0.0
1394	21.0	0.0
1395	21.0	0.0
1396	21.0	0.0
1397	21.0	0.0
1398	21.0	0.0
1399	21.0	0.0
1400	21.0	0.0
1401	21.0	0.0
1402	21.0	0.0
1403	21.0	0.0
1404	21.0	0.0
1405	21.0	0.0
1406	21.0	0.0
1407	21.0	0.0
1408	21.0	0.0
1409	21.0	0.0
1410	21.0	0.0
1411	21.0	0.0
1412	21.0	0.0
1413	21.0	0.0
1414	21.0	0.0
1415	21.0	0.0
1416	21.0	0.0
1417	21.0	0.0
1418	21.0	0.0
1419	21.0	0.0
1420	21.0	0.0
1421	21.0	0.0
1422	21.0	0.0
1423	21.0	0.0
1424	21.0	0.0
1425	21.0	0.0
1426	21.0	0.0
1427	21.0	0.0
1428	21.0	0.0
1429	21.0	0.0
1430	21.0	0.0
1431	21.0	0.0
1432	21.0	0.0
1433	21.0	0.0
1434	21.0	0.0
1435	21.0	0.0
1436	21.0	0.0
1437	21.0	0.0
1438	21.0	0.0
1439	21.0	0.0
1440	21.0	0.0;
